************************************************************************
file with basedata            : cr431_.bas
initial value random generator: 610076434
************************************************************************
projects                      :  1
jobs (incl. supersource/sink ):  18
horizon                       :  126
RESOURCES
  - renewable                 :  4   R
  - nonrenewable              :  2   N
  - doubly constrained        :  0   D
************************************************************************
PROJECT INFORMATION:
pronr.  #jobs rel.date duedate tardcost  MPM-Time
    1     16      0       21        7       21
************************************************************************
PRECEDENCE RELATIONS:
jobnr.    #modes  #successors   successors
   1        1          3           2   3   4
   2        3          3           5   9  10
   3        3          3           5   6  10
   4        3          1          16
   5        3          2          12  14
   6        3          3           7   8   9
   7        3          3          11  12  14
   8        3          3          12  13  14
   9        3          2          13  17
  10        3          1          15
  11        3          1          13
  12        3          2          16  17
  13        3          2          15  16
  14        3          1          17
  15        3          1          18
  16        3          1          18
  17        3          1          18
  18        1          0        
************************************************************************
REQUESTS/DURATIONS:
jobnr. mode duration  R 1  R 2  R 3  R 4  N 1  N 2
------------------------------------------------------------------------
  1      1     0       0    0    0    0    0    0
  2      1     7       4    8    6   10    0    5
         2     9       4    6    4    9    0    1
         3    10       3    6    4    7    7    0
  3      1     1       5    4   10    6    4    0
         2     2       4    4   10    6    2    0
         3    10       4    2   10    5    0    6
  4      1     1       9    7    7    9    0    8
         2    10       9    6    7    1    9    0
         3    10       9    6    7    6    3    0
  5      1     4       4    5    5    7    8    0
         2     6       3    3    3    6    0    9
         3    10       2    2    3    5    0    9
  6      1     2       4    4    3    5    4    0
         2     7       4    4    2    4    2    0
         3     8       3    3    2    2    1    0
  7      1     2       6    6    4    3    4    0
         2     5       4    4    4    2    0   10
         3     7       3    4    3    2    2    0
  8      1     1       4    8    5    5    0    7
         2     3       3    6    4    5    8    0
         3     5       3    2    3    4    7    0
  9      1     2       7    3    5   10    0    4
         2     6       4    3    4   10    0    3
         3    10       2    2    1   10    0    1
 10      1     4       7   10    9    6    8    0
         2     5       5   10    7    5    0   10
         3     9       1    9    7    3    4    0
 11      1     3       4    9    3    9    0    8
         2     4       2    8    3    7    9    0
         3     8       1    7    3    2    0    7
 12      1     1       9    8    6    7    8    0
         2     2       9    5    5    5    4    0
         3     2       9    3    6    3    3    0
 13      1     6       5    8    2    4    0    2
         2     7       4    8    2    2    8    0
         3     9       2    7    1    2    6    0
 14      1     1       8    3    4    7    0    8
         2     2       8    2    4    7    9    0
         3     3       5    1    3    6    9    0
 15      1     5       6    7    8    8    8    0
         2     6       6    6    7    6    8    0
         3    10       6    5    5    4    0    1
 16      1     1       8    9    5    7    0    7
         2     4       8    8    3    7    0    6
         3     5       7    8    2    6    5    0
 17      1     9       3    9    2    2    3    0
         2     9       4    9    2    2    0    7
         3    10       3    8    2    2    3    0
 18      1     0       0    0    0    0    0    0
************************************************************************
RESOURCEAVAILABILITIES:
  R 1  R 2  R 3  R 4  N 1  N 2
   19   23   20   27  102   92
************************************************************************
